p cnf 539 1270
a 452 371 458 209 377 380 384 387 393 396 400 484 407 410 414 417 424 427 431 434 509 315 440 443 357 364 325 328 336 339 529 349 7 13 24 30 2 1 40 18 6 12 35 23 29 50 45 60 55 70 65 80 75 85 90 95 105 100 110 115 120 130 125 135 140 145 150 168 163 155 159 172 185 180 176 204 199 194 190 208 223 218 214 227 236 231 241 246 251 261 256 266 271 276 285 281 290 295 300 305 310 314 320 324 335 346 356 363 0
d 370 452 150 168 2 0
d 375 204 208 223 227 458 0
d 151 7 13 0
d 439 310 314 320 2 509 0
d 403 484 2 0
d 347 2 529 0
d 449 324 335 346 356 363 0
d 3 2 0
d 4 1 2 0
d 5 1 2 0
d 8 7 0
d 9 6 7 0
d 10 6 7 0
d 11 1 2 6 7 0
d 14 13 0
d 15 12 13 0
d 16 12 13 0
d 17 1 2 6 7 12 13 0
d 19 6 12 0
d 20 18 6 12 0
d 21 18 6 12 0
d 22 1 2 6 7 12 13 18 0
d 25 24 0
d 26 23 24 0
d 27 23 24 0
d 28 1 2 6 7 12 13 18 23 24 0
d 31 30 0
d 32 29 30 0
d 33 29 30 0
d 34 1 2 6 7 12 13 18 23 24 29 30 0
d 36 23 29 0
d 37 35 23 29 0
d 38 35 23 29 0
d 39 1 2 6 7 12 13 18 23 24 29 30 35 0
d 41 18 35 0
d 42 40 18 35 0
d 43 40 18 35 0
d 44 1 2 6 7 12 13 18 23 24 29 30 35 40 0
d 46 7 12 0
d 47 45 7 12 0
d 48 45 7 12 0
d 49 1 2 6 7 12 13 18 23 24 29 30 35 40 45 0
d 51 45 35 0
d 52 50 45 35 0
d 53 50 45 35 0
d 54 1 2 6 7 12 13 18 23 24 29 30 35 40 45 50 0
d 56 6 13 0
d 57 55 6 13 0
d 58 55 6 13 0
d 59 1 2 6 7 12 13 18 23 24 29 30 35 40 45 50 55 0
d 61 55 35 0
d 62 60 55 35 0
d 63 60 55 35 0
d 64 1 2 6 7 12 13 18 23 24 29 30 35 40 45 50 55 60 0
d 66 7 13 0
d 67 65 7 13 0
d 68 65 7 13 0
d 69 1 2 6 7 12 13 18 23 24 29 30 35 40 45 50 55 60 65 0
d 71 65 35 0
d 72 70 65 35 0
d 73 70 65 35 0
d 74 1 2 6 7 12 13 18 23 24 29 30 35 40 45 50 55 60 65 70 0
d 76 24 29 0
d 77 75 24 29 0
d 78 75 24 29 0
d 79 1 2 6 7 12 13 18 23 24 29 30 35 40 45 50 55 60 65 70 75 0
d 81 18 75 0
d 82 80 18 75 0
d 83 80 18 75 0
d 84 1 2 6 7 12 13 18 23 24 29 30 35 40 45 50 55 60 65 70 75 80 0
d 86 45 75 0
d 87 85 45 75 0
d 88 85 45 75 0
d 89 1 2 6 7 12 13 18 23 24 29 30 35 40 45 50 55 60 65 70 75 80 85 0
d 91 55 75 0
d 92 90 55 75 0
d 93 90 55 75 0
d 94 1 2 6 7 12 13 18 23 24 29 30 35 40 45 50 55 60 65 70 75 80 85 90 0
d 96 65 75 0
d 97 95 65 75 0
d 98 95 65 75 0
d 99 1 2 6 7 12 13 18 23 24 29 30 35 40 45 50 55 60 65 70 75 80 85 90 95 0
d 101 23 30 0
d 102 100 23 30 0
d 103 100 23 30 0
d 104 1 2 6 7 12 13 18 23 24 29 30 35 40 45 50 55 60 65 70 75 80 85 90 95 100 0
d 106 18 100 0
d 107 105 18 100 0
d 108 105 18 100 0
d 109 1 2 6 7 12 13 18 23 24 29 30 35 40 45 50 55 60 65 70 75 80 85 90 95 100 105 0
d 111 45 100 0
d 112 110 45 100 0
d 113 110 45 100 0
d 114 1 2 6 7 12 13 18 23 24 29 30 35 40 45 50 55 60 65 70 75 80 85 90 95 100 105 110 0
d 116 55 100 0
d 117 115 55 100 0
d 118 115 55 100 0
d 119 1 2 6 7 12 13 18 23 24 29 30 35 40 45 50 55 60 65 70 75 80 85 90 95 100 105 110 115 0
d 121 65 100 0
d 122 120 65 100 0
d 123 120 65 100 0
d 124 1 2 6 7 12 13 18 23 24 29 30 35 40 45 50 55 60 65 70 75 80 85 90 95 100 105 110 115 120 0
d 126 24 30 0
d 127 125 24 30 0
d 128 125 24 30 0
d 129 1 2 6 7 12 13 18 23 24 29 30 35 40 45 50 55 60 65 70 75 80 85 90 95 100 105 110 115 120 125 0
d 131 18 125 0
d 132 130 18 125 0
d 133 130 18 125 0
d 134 1 2 6 7 12 13 18 23 24 29 30 35 40 45 50 55 60 65 70 75 80 85 90 95 100 105 110 115 120 125 130 0
d 136 45 125 0
d 137 135 45 125 0
d 138 135 45 125 0
d 139 1 2 6 7 12 13 18 23 24 29 30 35 40 45 50 55 60 65 70 75 80 85 90 95 100 105 110 115 120 125 130 135 0
d 141 55 125 0
d 142 140 55 125 0
d 143 140 55 125 0
d 144 1 2 6 7 12 13 18 23 24 29 30 35 40 45 50 55 60 65 70 75 80 85 90 95 100 105 110 115 120 125 130 135 140 0
d 146 65 125 0
d 147 145 65 125 0
d 148 145 65 125 0
d 149 1 2 6 7 12 13 18 23 24 29 30 35 40 45 50 55 60 65 70 75 80 85 90 95 100 105 110 115 120 125 130 135 140 145 0
d 152 150 7 13 0
d 153 150 7 13 0
d 154 1 2 6 7 12 13 18 23 24 29 30 35 40 45 50 55 60 65 70 75 80 85 90 95 100 105 110 115 120 125 130 135 140 145 150 0
d 156 155 24 0
d 157 155 24 0
d 158 1 2 6 7 12 13 18 23 24 29 30 35 40 45 50 55 60 65 70 75 80 85 90 95 100 105 110 115 120 125 130 135 140 145 150 155 0
d 160 159 30 0
d 161 159 30 0
d 162 1 2 6 7 12 13 18 23 24 29 30 35 40 45 50 55 60 65 70 75 80 85 90 95 100 105 110 115 120 125 130 135 140 145 150 155 159 0
d 164 155 159 0
d 165 163 155 159 0
d 166 163 155 159 0
d 167 1 2 6 7 12 13 18 23 24 29 30 35 40 45 50 55 60 65 70 75 80 85 90 95 100 105 110 115 120 125 130 135 140 145 150 155 159 163 0
d 169 168 163 0
d 170 168 163 0
d 171 1 2 6 7 12 13 18 23 24 29 30 35 40 45 50 55 60 65 70 75 80 85 90 95 100 105 110 115 120 125 130 135 140 145 150 155 159 163 168 0
d 173 172 2 0
d 174 172 2 0
d 175 1 2 6 7 12 13 18 23 24 29 30 35 40 45 50 55 60 65 70 75 80 85 90 95 100 105 110 115 120 125 130 135 140 145 150 155 159 163 168 172 0
d 177 176 13 0
d 178 176 13 0
d 179 1 2 6 7 12 13 18 23 24 29 30 35 40 45 50 55 60 65 70 75 80 85 90 95 100 105 110 115 120 125 130 135 140 145 150 155 159 163 168 172 176 0
d 181 7 176 0
d 182 180 7 176 0
d 183 180 7 176 0
d 184 1 2 6 7 12 13 18 23 24 29 30 35 40 45 50 55 60 65 70 75 80 85 90 95 100 105 110 115 120 125 130 135 140 145 150 155 159 163 168 172 176 180 0
d 186 180 163 0
d 187 185 180 163 0
d 188 185 180 163 0
d 189 1 2 6 7 12 13 18 23 24 29 30 35 40 45 50 55 60 65 70 75 80 85 90 95 100 105 110 115 120 125 130 135 140 145 150 155 159 163 168 172 176 180 185 0
d 191 190 7 0
d 192 190 7 0
d 193 1 2 6 7 12 13 18 23 24 29 30 35 40 45 50 55 60 65 70 75 80 85 90 95 100 105 110 115 120 125 130 135 140 145 150 155 159 163 168 172 176 180 185 190 0
d 195 190 13 0
d 196 194 190 13 0
d 197 194 190 13 0
d 198 1 2 6 7 12 13 18 23 24 29 30 35 40 45 50 55 60 65 70 75 80 85 90 95 100 105 110 115 120 125 130 135 140 145 150 155 159 163 168 172 176 180 185 190 194 0
d 200 194 163 0
d 201 199 194 163 0
d 202 199 194 163 0
d 203 1 2 6 7 12 13 18 23 24 29 30 35 40 45 50 55 60 65 70 75 80 85 90 95 100 105 110 115 120 125 130 135 140 145 150 155 159 163 168 172 176 180 185 190 194 199 0
d 205 204 199 0
d 206 204 199 0
d 207 1 2 6 7 12 13 18 23 24 29 30 35 40 45 50 55 60 65 70 75 80 85 90 95 100 105 110 115 120 125 130 135 140 145 150 155 159 163 168 172 176 180 185 190 194 199 204 0
d 210 172 209 0
d 211 208 172 209 0
d 212 208 172 209 0
d 213 1 2 6 7 12 13 18 23 24 29 30 35 40 45 50 55 60 65 70 75 80 85 90 95 100 105 110 115 120 125 130 135 140 145 150 155 159 163 168 172 176 180 185 190 194 199 204 208 209 0
d 215 214 7 13 0
d 216 214 7 13 0
d 217 1 2 6 7 12 13 18 23 24 29 30 35 40 45 50 55 60 65 70 75 80 85 90 95 100 105 110 115 120 125 130 135 140 145 150 155 159 163 168 172 176 180 185 190 194 199 204 208 209 214 0
d 219 214 163 0
d 220 218 214 163 0
d 221 218 214 163 0
d 222 1 2 6 7 12 13 18 23 24 29 30 35 40 45 50 55 60 65 70 75 80 85 90 95 100 105 110 115 120 125 130 135 140 145 150 155 159 163 168 172 176 180 185 190 194 199 204 208 209 214 218 0
d 224 223 218 0
d 225 223 218 0
d 226 1 2 6 7 12 13 18 23 24 29 30 35 40 45 50 55 60 65 70 75 80 85 90 95 100 105 110 115 120 125 130 135 140 145 150 155 159 163 168 172 176 180 185 190 194 199 204 208 209 214 218 223 0
d 228 227 172 0
d 229 227 172 0
d 230 1 2 6 7 12 13 18 23 24 29 30 35 40 45 50 55 60 65 70 75 80 85 90 95 100 105 110 115 120 125 130 135 140 145 150 155 159 163 168 172 176 180 185 190 194 199 204 208 209 214 218 223 227 0
d 232 24 159 0
d 233 231 24 159 0
d 234 231 24 159 0
d 235 1 2 6 7 12 13 18 23 24 29 30 35 40 45 50 55 60 65 70 75 80 85 90 95 100 105 110 115 120 125 130 135 140 145 150 155 159 163 168 172 176 180 185 190 194 199 204 208 209 214 218 223 227 231 0
d 237 7 13 231 0
d 238 236 7 13 231 0
d 239 236 7 13 231 0
d 240 1 2 6 7 12 13 18 23 24 29 30 35 40 45 50 55 60 65 70 75 80 85 90 95 100 105 110 115 120 125 130 135 140 145 150 155 159 163 168 172 176 180 185 190 194 199 204 208 209 214 218 223 227 231 236 0
d 242 180 231 0
d 243 241 180 231 0
d 244 241 180 231 0
d 245 1 2 6 7 12 13 18 23 24 29 30 35 40 45 50 55 60 65 70 75 80 85 90 95 100 105 110 115 120 125 130 135 140 145 150 155 159 163 168 172 176 180 185 190 194 199 204 208 209 214 218 223 227 231 236 241 0
d 247 194 231 0
d 248 246 194 231 0
d 249 246 194 231 0
d 250 1 2 6 7 12 13 18 23 24 29 30 35 40 45 50 55 60 65 70 75 80 85 90 95 100 105 110 115 120 125 130 135 140 145 150 155 159 163 168 172 176 180 185 190 194 199 204 208 209 214 218 223 227 231 236 241 246 0
d 252 214 231 0
d 253 251 214 231 0
d 254 251 214 231 0
d 255 1 2 6 7 12 13 18 23 24 29 30 35 40 45 50 55 60 65 70 75 80 85 90 95 100 105 110 115 120 125 130 135 140 145 150 155 159 163 168 172 176 180 185 190 194 199 204 208 209 214 218 223 227 231 236 241 246 251 0
d 257 155 30 0
d 258 256 155 30 0
d 259 256 155 30 0
d 260 1 2 6 7 12 13 18 23 24 29 30 35 40 45 50 55 60 65 70 75 80 85 90 95 100 105 110 115 120 125 130 135 140 145 150 155 159 163 168 172 176 180 185 190 194 199 204 208 209 214 218 223 227 231 236 241 246 251 256 0
d 262 7 13 256 0
d 263 261 7 13 256 0
d 264 261 7 13 256 0
d 265 1 2 6 7 12 13 18 23 24 29 30 35 40 45 50 55 60 65 70 75 80 85 90 95 100 105 110 115 120 125 130 135 140 145 150 155 159 163 168 172 176 180 185 190 194 199 204 208 209 214 218 223 227 231 236 241 246 251 256 261 0
d 267 180 256 0
d 268 266 180 256 0
d 269 266 180 256 0
d 270 1 2 6 7 12 13 18 23 24 29 30 35 40 45 50 55 60 65 70 75 80 85 90 95 100 105 110 115 120 125 130 135 140 145 150 155 159 163 168 172 176 180 185 190 194 199 204 208 209 214 218 223 227 231 236 241 246 251 256 261 266 0
d 272 194 256 0
d 273 271 194 256 0
d 274 271 194 256 0
d 275 1 2 6 7 12 13 18 23 24 29 30 35 40 45 50 55 60 65 70 75 80 85 90 95 100 105 110 115 120 125 130 135 140 145 150 155 159 163 168 172 176 180 185 190 194 199 204 208 209 214 218 223 227 231 236 241 246 251 256 261 266 271 0
d 277 214 256 0
d 278 276 214 256 0
d 279 276 214 256 0
d 280 1 2 6 7 12 13 18 23 24 29 30 35 40 45 50 55 60 65 70 75 80 85 90 95 100 105 110 115 120 125 130 135 140 145 150 155 159 163 168 172 176 180 185 190 194 199 204 208 209 214 218 223 227 231 236 241 246 251 256 261 266 271 276 0
d 282 281 24 30 0
d 283 281 24 30 0
d 284 1 2 6 7 12 13 18 23 24 29 30 35 40 45 50 55 60 65 70 75 80 85 90 95 100 105 110 115 120 125 130 135 140 145 150 155 159 163 168 172 176 180 185 190 194 199 204 208 209 214 218 223 227 231 236 241 246 251 256 261 266 271 276 281 0
d 286 7 13 281 0
d 287 285 7 13 281 0
d 288 285 7 13 281 0
d 289 1 2 6 7 12 13 18 23 24 29 30 35 40 45 50 55 60 65 70 75 80 85 90 95 100 105 110 115 120 125 130 135 140 145 150 155 159 163 168 172 176 180 185 190 194 199 204 208 209 214 218 223 227 231 236 241 246 251 256 261 266 271 276 281 285 0
d 291 180 281 0
d 292 290 180 281 0
d 293 290 180 281 0
d 294 1 2 6 7 12 13 18 23 24 29 30 35 40 45 50 55 60 65 70 75 80 85 90 95 100 105 110 115 120 125 130 135 140 145 150 155 159 163 168 172 176 180 185 190 194 199 204 208 209 214 218 223 227 231 236 241 246 251 256 261 266 271 276 281 285 290 0
d 296 194 281 0
d 297 295 194 281 0
d 298 295 194 281 0
d 299 1 2 6 7 12 13 18 23 24 29 30 35 40 45 50 55 60 65 70 75 80 85 90 95 100 105 110 115 120 125 130 135 140 145 150 155 159 163 168 172 176 180 185 190 194 199 204 208 209 214 218 223 227 231 236 241 246 251 256 261 266 271 276 281 285 290 295 0
d 301 214 281 0
d 302 300 214 281 0
d 303 300 214 281 0
d 304 1 2 6 7 12 13 18 23 24 29 30 35 40 45 50 55 60 65 70 75 80 85 90 95 100 105 110 115 120 125 130 135 140 145 150 155 159 163 168 172 176 180 185 190 194 199 204 208 209 214 218 223 227 231 236 241 246 251 256 261 266 271 276 281 285 290 295 300 0
d 306 7 13 163 0
d 307 305 7 13 163 0
d 308 305 7 13 163 0
d 309 1 2 6 7 12 13 18 23 24 29 30 35 40 45 50 55 60 65 70 75 80 85 90 95 100 105 110 115 120 125 130 135 140 145 150 155 159 163 168 172 176 180 185 190 194 199 204 208 209 214 218 223 227 231 236 241 246 251 256 261 266 271 276 281 285 290 295 300 305 0
d 311 310 236 0
d 312 310 236 0
d 313 1 2 6 7 12 13 18 23 24 29 30 35 40 45 50 55 60 65 70 75 80 85 90 95 100 105 110 115 120 125 130 135 140 145 150 155 159 163 168 172 176 180 185 190 194 199 204 208 209 214 218 223 227 231 236 241 246 251 256 261 266 271 276 281 285 290 295 300 305 310 0
d 316 2 315 0
d 317 314 2 315 0
d 318 314 2 315 0
d 319 1 2 6 7 12 13 18 23 24 29 30 35 40 45 50 55 60 65 70 75 80 85 90 95 100 105 110 115 120 125 130 135 140 145 150 155 159 163 168 172 176 180 185 190 194 199 204 208 209 214 218 223 227 231 236 241 246 251 256 261 266 271 276 281 285 290 295 300 305 310 314 315 0
d 321 320 241 0
d 322 320 241 0
d 323 1 2 6 7 12 13 18 23 24 29 30 35 40 45 50 55 60 65 70 75 80 85 90 95 100 105 110 115 120 125 130 135 140 145 150 155 159 163 168 172 176 180 185 190 194 199 204 208 209 214 218 223 227 231 236 241 246 251 256 261 266 271 276 281 285 290 295 300 305 310 314 315 320 0
d 326 2 325 0
d 327 2 325 271 0
d 329 2 328 0
d 330 2 328 276 0
d 331 2 325 271 328 276 0
d 332 324 2 325 271 328 276 0
d 333 324 2 325 271 328 276 0
d 334 1 2 6 7 12 13 18 23 24 29 30 35 40 45 50 55 60 65 70 75 80 85 90 95 100 105 110 115 120 125 130 135 140 145 150 155 159 163 168 172 176 180 185 190 194 199 204 208 209 214 218 223 227 231 236 241 246 251 256 261 266 271 276 281 285 290 295 300 305 310 314 315 320 324 325 328 0
d 337 2 336 0
d 338 2 336 285 0
d 340 2 339 0
d 341 2 339 290 0
d 342 2 336 285 339 290 0
d 343 335 2 336 285 339 290 0
d 344 335 2 336 285 339 290 0
d 345 1 2 6 7 12 13 18 23 24 29 30 35 40 45 50 55 60 65 70 75 80 85 90 95 100 105 110 115 120 125 130 135 140 145 150 155 159 163 168 172 176 180 185 190 194 199 204 208 209 214 218 223 227 231 236 241 246 251 256 261 266 271 276 281 285 290 295 300 305 310 314 315 320 324 325 328 335 336 339 0
d 348 2 529 295 0
d 350 2 349 0
d 351 2 349 300 0
d 352 2 529 295 349 300 0
d 353 346 2 529 295 349 300 0
d 354 346 2 529 295 349 300 0
d 355 1 2 6 7 12 13 18 23 24 29 30 35 40 45 50 55 60 65 70 75 80 85 90 95 100 105 110 115 120 125 130 135 140 145 150 155 159 163 168 172 176 180 185 190 194 199 204 208 209 214 218 223 227 231 236 241 246 251 256 261 266 271 276 281 285 290 295 300 305 310 314 315 320 324 325 328 335 336 339 346 529 349 0
d 358 2 357 0
d 359 2 357 261 0
d 360 356 2 357 261 0
d 361 356 2 357 261 0
d 362 1 2 6 7 12 13 18 23 24 29 30 35 40 45 50 55 60 65 70 75 80 85 90 95 100 105 110 115 120 125 130 135 140 145 150 155 159 163 168 172 176 180 185 190 194 199 204 208 209 214 218 223 227 231 236 241 246 251 256 261 266 271 276 281 285 290 295 300 305 310 314 315 320 324 325 328 335 336 339 346 529 349 356 357 0
d 365 2 364 0
d 366 2 364 266 0
d 367 363 2 364 266 0
d 368 363 2 364 266 0
d 369 1 2 6 7 12 13 18 23 24 29 30 35 40 45 50 55 60 65 70 75 80 85 90 95 100 105 110 115 120 125 130 135 140 145 150 155 159 163 168 172 176 180 185 190 194 199 204 208 209 214 218 223 227 231 236 241 246 251 256 261 266 271 276 281 285 290 295 300 305 310 314 315 320 324 325 328 335 336 339 346 529 349 356 357 363 364 0
d 372 172 371 0
d 373 172 371 185 0
d 374 452 150 168 2 172 371 185 0
d 376 452 150 168 2 172 371 185 204 208 223 227 458 0
d 378 172 377 0
d 379 172 377 236 0
d 381 172 380 0
d 382 172 380 241 0
d 383 172 377 236 380 241 0
d 385 172 384 0
d 386 172 384 246 0
d 388 172 387 0
d 389 172 387 251 0
d 390 172 384 246 387 251 0
d 391 172 377 236 380 241 384 246 387 251 0
d 392 452 150 168 2 172 371 185 204 208 223 227 458 377 236 380 241 384 246 387 251 0
d 394 172 393 0
d 395 172 393 261 0
d 397 172 396 0
d 398 172 396 266 0
d 399 172 393 261 396 266 0
d 401 172 400 0
d 402 172 400 271 0
d 404 484 2 276 0
d 405 172 400 271 484 2 276 0
d 406 172 393 261 396 266 400 271 484 2 276 0
d 408 172 407 0
d 409 172 407 285 0
d 411 172 410 0
d 412 172 410 290 0
d 413 172 407 285 410 290 0
d 415 172 414 0
d 416 172 414 295 0
d 418 172 417 0
d 419 172 417 300 0
d 420 172 414 295 417 300 0
d 421 172 407 285 410 290 414 295 417 300 0
d 422 172 393 261 396 266 400 271 484 2 276 407 285 410 290 414 295 417 300 0
d 423 452 150 168 2 172 371 185 204 208 223 227 458 377 236 380 241 384 246 387 251 393 261 396 266 400 271 484 276 407 285 410 290 414 295 417 300 0
d 425 2 424 0
d 426 2 424 305 0
d 428 2 427 0
d 429 2 427 185 0
d 430 2 424 305 427 185 0
d 432 2 431 0
d 433 2 431 199 0
d 435 2 434 0
d 436 2 434 218 0
d 437 2 431 199 434 218 0
d 438 2 424 305 427 185 431 199 434 218 0
d 441 2 440 0
d 442 2 440 246 0
d 444 2 443 0
d 445 2 443 251 0
d 446 2 440 246 443 251 0
d 447 310 314 320 2 509 440 246 443 251 0
d 448 2 424 305 427 185 431 199 434 218 310 314 320 509 440 246 443 251 0
d 450 2 424 305 427 185 431 199 434 218 310 314 320 509 440 246 443 251 324 335 346 356 363 0
d 451 452 150 168 2 172 371 185 204 208 223 227 458 377 236 380 241 384 246 387 251 393 261 396 266 400 271 484 276 407 285 410 290 414 295 417 300 424 305 427 431 199 434 218 310 314 320 509 440 443 324 335 346 356 363 0
d 453 1 452 0
d 454 1 452 40 0
d 455 1 371 0
d 456 1 371 50 0
d 457 1 452 40 371 50 0
d 459 1 458 0
d 460 1 458 60 0
d 461 1 209 0
d 462 1 209 70 0
d 463 1 458 60 209 70 0
d 464 1 452 40 371 50 458 60 209 70 0
d 465 1 377 0
d 466 1 377 80 0
d 467 1 380 0
d 468 1 380 85 0
d 469 1 377 80 380 85 0
d 470 1 384 0
d 471 1 384 90 0
d 472 1 387 0
d 473 1 387 95 0
d 474 1 384 90 387 95 0
d 475 1 377 80 380 85 384 90 387 95 0
d 476 1 452 40 371 50 458 60 209 70 377 80 380 85 384 90 387 95 0
d 477 1 393 0
d 478 1 393 105 0
d 479 1 396 0
d 480 1 396 110 0
d 481 1 393 105 396 110 0
d 482 1 400 0
d 483 1 400 115 0
d 485 1 484 0
d 486 1 484 120 0
d 487 1 400 115 484 120 0
d 488 1 393 105 396 110 400 115 484 120 0
d 489 1 407 0
d 490 1 407 130 0
d 491 1 410 0
d 492 1 410 135 0
d 493 1 407 130 410 135 0
d 494 1 414 0
d 495 1 414 140 0
d 496 1 417 0
d 497 1 417 145 0
d 498 1 414 140 417 145 0
d 499 1 407 130 410 135 414 140 417 145 0
d 500 1 393 105 396 110 400 115 484 120 407 130 410 135 414 140 417 145 0
d 501 1 452 40 371 50 458 60 209 70 377 80 380 85 384 90 387 95 393 105 396 110 400 115 484 120 407 130 410 135 414 140 417 145 0
d 502 2 424 40 0
d 503 2 427 50 0
d 504 2 424 40 427 50 0
d 505 2 431 60 0
d 506 2 434 70 0
d 507 2 431 60 434 70 0
d 508 2 424 40 427 50 431 60 434 70 0
d 510 2 509 0
d 511 2 509 80 0
d 512 2 315 85 0
d 513 2 509 80 315 85 0
d 514 2 440 90 0
d 515 2 443 95 0
d 516 2 440 90 443 95 0
d 517 2 509 80 315 85 440 90 443 95 0
d 518 2 424 40 427 50 431 60 434 70 509 80 315 85 440 90 443 95 0
d 519 2 357 105 0
d 520 2 364 110 0
d 521 2 357 105 364 110 0
d 522 2 325 115 0
d 523 2 328 120 0
d 524 2 325 115 328 120 0
d 525 2 357 105 364 110 325 115 328 120 0
d 526 2 336 130 0
d 527 2 339 135 0
d 528 2 336 130 339 135 0
d 530 2 529 0
d 531 2 529 140 0
d 532 2 349 145 0
d 533 2 529 140 349 145 0
d 534 2 336 130 339 135 529 140 349 145 0
d 535 2 357 105 364 110 325 115 328 120 336 130 339 135 529 140 349 145 0
d 536 2 424 40 427 50 431 60 434 70 509 80 315 85 440 90 443 95 357 105 364 110 325 115 328 120 336 130 339 135 529 140 349 145 0
d 537 1 452 40 371 50 458 60 209 70 377 80 380 85 384 90 387 95 393 105 396 110 400 115 484 120 407 130 410 135 414 140 417 145 2 424 427 431 434 509 315 440 443 357 364 325 328 336 339 529 349 0
d 538 452 150 168 2 172 371 185 204 208 223 227 458 377 236 380 241 384 246 387 251 393 261 396 266 400 271 484 276 407 285 410 290 414 295 417 300 424 305 427 431 199 434 218 310 314 320 509 440 443 324 335 346 356 363 1 40 50 60 209 70 80 85 90 95 105 110 115 120 130 135 140 145 315 357 364 325 328 336 339 529 349 0
d 539 1 2 6 7 12 13 18 23 24 29 30 35 40 45 50 55 60 65 70 75 80 85 90 95 100 105 110 115 120 125 130 135 140 145 150 155 159 163 168 172 176 180 185 190 194 199 204 208 209 214 218 223 227 231 236 241 246 251 256 261 266 271 276 281 285 290 295 300 305 310 314 315 320 324 325 328 335 336 339 346 529 349 356 357 363 364 452 371 458 377 380 384 387 393 396 400 484 407 410 414 417 424 427 431 434 509 440 443 0
3 2 0
-3 -2 0
4 -1 -3 0
4 1 3 0
-4 -1 3 0
-4 1 -3 0
5 4 0
-5 -4 0
8 7 0
-8 -7 0
9 -6 -8 0
9 6 8 0
-9 -6 8 0
-9 6 -8 0
10 9 0
-10 -9 0
11 -5 0
11 -10 0
-11 5 10 0
14 13 0
-14 -13 0
15 -12 -14 0
15 12 14 0
-15 -12 14 0
-15 12 -14 0
16 15 0
-16 -15 0
17 -11 0
17 -16 0
-17 11 16 0
-19 6 0
-19 12 0
19 -6 -12 0
20 -18 -19 0
20 18 19 0
-20 -18 19 0
-20 18 -19 0
21 20 0
-21 -20 0
22 -17 0
22 -21 0
-22 17 21 0
25 24 0
-25 -24 0
26 -23 -25 0
26 23 25 0
-26 -23 25 0
-26 23 -25 0
27 26 0
-27 -26 0
28 -22 0
28 -27 0
-28 22 27 0
31 30 0
-31 -30 0
32 -29 -31 0
32 29 31 0
-32 -29 31 0
-32 29 -31 0
33 32 0
-33 -32 0
34 -28 0
34 -33 0
-34 28 33 0
-36 23 0
-36 29 0
36 -23 -29 0
37 -35 -36 0
37 35 36 0
-37 -35 36 0
-37 35 -36 0
38 37 0
-38 -37 0
39 -34 0
39 -38 0
-39 34 38 0
-41 18 0
-41 35 0
41 -18 -35 0
42 -40 -41 0
42 40 41 0
-42 -40 41 0
-42 40 -41 0
43 42 0
-43 -42 0
44 -39 0
44 -43 0
-44 39 43 0
-46 7 0
-46 12 0
46 -7 -12 0
47 -45 -46 0
47 45 46 0
-47 -45 46 0
-47 45 -46 0
48 47 0
-48 -47 0
49 -44 0
49 -48 0
-49 44 48 0
-51 45 0
-51 35 0
51 -45 -35 0
52 -50 -51 0
52 50 51 0
-52 -50 51 0
-52 50 -51 0
53 52 0
-53 -52 0
54 -49 0
54 -53 0
-54 49 53 0
-56 6 0
-56 13 0
56 -6 -13 0
57 -55 -56 0
57 55 56 0
-57 -55 56 0
-57 55 -56 0
58 57 0
-58 -57 0
59 -54 0
59 -58 0
-59 54 58 0
-61 55 0
-61 35 0
61 -55 -35 0
62 -60 -61 0
62 60 61 0
-62 -60 61 0
-62 60 -61 0
63 62 0
-63 -62 0
64 -59 0
64 -63 0
-64 59 63 0
-66 7 0
-66 13 0
66 -7 -13 0
67 -65 -66 0
67 65 66 0
-67 -65 66 0
-67 65 -66 0
68 67 0
-68 -67 0
69 -64 0
69 -68 0
-69 64 68 0
-71 65 0
-71 35 0
71 -65 -35 0
72 -70 -71 0
72 70 71 0
-72 -70 71 0
-72 70 -71 0
73 72 0
-73 -72 0
74 -69 0
74 -73 0
-74 69 73 0
-76 24 0
-76 29 0
76 -24 -29 0
77 -75 -76 0
77 75 76 0
-77 -75 76 0
-77 75 -76 0
78 77 0
-78 -77 0
79 -74 0
79 -78 0
-79 74 78 0
-81 18 0
-81 75 0
81 -18 -75 0
82 -80 -81 0
82 80 81 0
-82 -80 81 0
-82 80 -81 0
83 82 0
-83 -82 0
84 -79 0
84 -83 0
-84 79 83 0
-86 45 0
-86 75 0
86 -45 -75 0
87 -85 -86 0
87 85 86 0
-87 -85 86 0
-87 85 -86 0
88 87 0
-88 -87 0
89 -84 0
89 -88 0
-89 84 88 0
-91 55 0
-91 75 0
91 -55 -75 0
92 -90 -91 0
92 90 91 0
-92 -90 91 0
-92 90 -91 0
93 92 0
-93 -92 0
94 -89 0
94 -93 0
-94 89 93 0
-96 65 0
-96 75 0
96 -65 -75 0
97 -95 -96 0
97 95 96 0
-97 -95 96 0
-97 95 -96 0
98 97 0
-98 -97 0
99 -94 0
99 -98 0
-99 94 98 0
-101 23 0
-101 30 0
101 -23 -30 0
102 -100 -101 0
102 100 101 0
-102 -100 101 0
-102 100 -101 0
103 102 0
-103 -102 0
104 -99 0
104 -103 0
-104 99 103 0
-106 18 0
-106 100 0
106 -18 -100 0
107 -105 -106 0
107 105 106 0
-107 -105 106 0
-107 105 -106 0
108 107 0
-108 -107 0
109 -104 0
109 -108 0
-109 104 108 0
-111 45 0
-111 100 0
111 -45 -100 0
112 -110 -111 0
112 110 111 0
-112 -110 111 0
-112 110 -111 0
113 112 0
-113 -112 0
114 -109 0
114 -113 0
-114 109 113 0
-116 55 0
-116 100 0
116 -55 -100 0
117 -115 -116 0
117 115 116 0
-117 -115 116 0
-117 115 -116 0
118 117 0
-118 -117 0
119 -114 0
119 -118 0
-119 114 118 0
-121 65 0
-121 100 0
121 -65 -100 0
122 -120 -121 0
122 120 121 0
-122 -120 121 0
-122 120 -121 0
123 122 0
-123 -122 0
124 -119 0
124 -123 0
-124 119 123 0
-126 24 0
-126 30 0
126 -24 -30 0
127 -125 -126 0
127 125 126 0
-127 -125 126 0
-127 125 -126 0
128 127 0
-128 -127 0
129 -124 0
129 -128 0
-129 124 128 0
-131 18 0
-131 125 0
131 -18 -125 0
132 -130 -131 0
132 130 131 0
-132 -130 131 0
-132 130 -131 0
133 132 0
-133 -132 0
134 -129 0
134 -133 0
-134 129 133 0
-136 45 0
-136 125 0
136 -45 -125 0
137 -135 -136 0
137 135 136 0
-137 -135 136 0
-137 135 -136 0
138 137 0
-138 -137 0
139 -134 0
139 -138 0
-139 134 138 0
-141 55 0
-141 125 0
141 -55 -125 0
142 -140 -141 0
142 140 141 0
-142 -140 141 0
-142 140 -141 0
143 142 0
-143 -142 0
144 -139 0
144 -143 0
-144 139 143 0
-146 65 0
-146 125 0
146 -65 -125 0
147 -145 -146 0
147 145 146 0
-147 -145 146 0
-147 145 -146 0
148 147 0
-148 -147 0
149 -144 0
149 -148 0
-149 144 148 0
152 -150 -151 0
152 150 151 0
-152 -150 151 0
-152 150 -151 0
153 152 0
-153 -152 0
154 -149 0
154 -153 0
-154 149 153 0
156 -155 -25 0
156 155 25 0
-156 -155 25 0
-156 155 -25 0
157 156 0
-157 -156 0
158 -154 0
158 -157 0
-158 154 157 0
160 -159 -31 0
160 159 31 0
-160 -159 31 0
-160 159 -31 0
161 160 0
-161 -160 0
162 -158 0
162 -161 0
-162 158 161 0
164 -155 159 0
164 155 -159 0
-164 -155 -159 0
-164 155 159 0
165 -163 -164 0
165 163 164 0
-165 -163 164 0
-165 163 -164 0
166 165 0
-166 -165 0
167 -162 0
167 -166 0
-167 162 166 0
169 -168 -163 0
169 168 163 0
-169 -168 163 0
-169 168 -163 0
170 169 0
-170 -169 0
171 -167 0
171 -170 0
-171 167 170 0
173 -172 -3 0
173 172 3 0
-173 -172 3 0
-173 172 -3 0
174 173 0
-174 -173 0
175 -171 0
175 -174 0
-175 171 174 0
177 -176 -14 0
177 176 14 0
-177 -176 14 0
-177 176 -14 0
178 177 0
-178 -177 0
179 -175 0
179 -178 0
-179 175 178 0
-181 7 0
-181 176 0
181 -7 -176 0
182 -180 -181 0
182 180 181 0
-182 -180 181 0
-182 180 -181 0
183 182 0
-183 -182 0
184 -179 0
184 -183 0
-184 179 183 0
-186 180 0
-186 163 0
186 -180 -163 0
187 -185 -186 0
187 185 186 0
-187 -185 186 0
-187 185 -186 0
188 187 0
-188 -187 0
189 -184 0
189 -188 0
-189 184 188 0
191 -190 -8 0
191 190 8 0
-191 -190 8 0
-191 190 -8 0
192 191 0
-192 -191 0
193 -189 0
193 -192 0
-193 189 192 0
-195 190 0
-195 13 0
195 -190 -13 0
196 -194 -195 0
196 194 195 0
-196 -194 195 0
-196 194 -195 0
197 196 0
-197 -196 0
198 -193 0
198 -197 0
-198 193 197 0
-200 194 0
-200 163 0
200 -194 -163 0
201 -199 -200 0
201 199 200 0
-201 -199 200 0
-201 199 -200 0
202 201 0
-202 -201 0
203 -198 0
203 -202 0
-203 198 202 0
205 -204 -199 0
205 204 199 0
-205 -204 199 0
-205 204 -199 0
206 205 0
-206 -205 0
207 -203 0
207 -206 0
-207 203 206 0
-210 172 0
-210 209 0
210 -172 -209 0
211 -208 -210 0
211 208 210 0
-211 -208 210 0
-211 208 -210 0
212 211 0
-212 -211 0
213 -207 0
213 -212 0
-213 207 212 0
215 -214 -66 0
215 214 66 0
-215 -214 66 0
-215 214 -66 0
216 215 0
-216 -215 0
217 -213 0
217 -216 0
-217 213 216 0
-219 214 0
-219 163 0
219 -214 -163 0
220 -218 -219 0
220 218 219 0
-220 -218 219 0
-220 218 -219 0
221 220 0
-221 -220 0
222 -217 0
222 -221 0
-222 217 221 0
224 -223 -218 0
224 223 218 0
-224 -223 218 0
-224 223 -218 0
225 224 0
-225 -224 0
226 -222 0
226 -225 0
-226 222 225 0
228 -227 -172 0
228 227 172 0
-228 -227 172 0
-228 227 -172 0
229 228 0
-229 -228 0
230 -226 0
230 -229 0
-230 226 229 0
-232 24 0
-232 159 0
232 -24 -159 0
233 -231 -232 0
233 231 232 0
-233 -231 232 0
-233 231 -232 0
234 233 0
-234 -233 0
235 -230 0
235 -234 0
-235 230 234 0
-237 151 0
-237 231 0
237 -151 -231 0
238 -236 -237 0
238 236 237 0
-238 -236 237 0
-238 236 -237 0
239 238 0
-239 -238 0
240 -235 0
240 -239 0
-240 235 239 0
-242 180 0
-242 231 0
242 -180 -231 0
243 -241 -242 0
243 241 242 0
-243 -241 242 0
-243 241 -242 0
244 243 0
-244 -243 0
245 -240 0
245 -244 0
-245 240 244 0
-247 194 0
-247 231 0
247 -194 -231 0
248 -246 -247 0
248 246 247 0
-248 -246 247 0
-248 246 -247 0
249 248 0
-249 -248 0
250 -245 0
250 -249 0
-250 245 249 0
-252 214 0
-252 231 0
252 -214 -231 0
253 -251 -252 0
253 251 252 0
-253 -251 252 0
-253 251 -252 0
254 253 0
-254 -253 0
255 -250 0
255 -254 0
-255 250 254 0
-257 155 0
-257 30 0
257 -155 -30 0
258 -256 -257 0
258 256 257 0
-258 -256 257 0
-258 256 -257 0
259 258 0
-259 -258 0
260 -255 0
260 -259 0
-260 255 259 0
-262 151 0
-262 256 0
262 -151 -256 0
263 -261 -262 0
263 261 262 0
-263 -261 262 0
-263 261 -262 0
264 263 0
-264 -263 0
265 -260 0
265 -264 0
-265 260 264 0
-267 180 0
-267 256 0
267 -180 -256 0
268 -266 -267 0
268 266 267 0
-268 -266 267 0
-268 266 -267 0
269 268 0
-269 -268 0
270 -265 0
270 -269 0
-270 265 269 0
-272 194 0
-272 256 0
272 -194 -256 0
273 -271 -272 0
273 271 272 0
-273 -271 272 0
-273 271 -272 0
274 273 0
-274 -273 0
275 -270 0
275 -274 0
-275 270 274 0
-277 214 0
-277 256 0
277 -214 -256 0
278 -276 -277 0
278 276 277 0
-278 -276 277 0
-278 276 -277 0
279 278 0
-279 -278 0
280 -275 0
280 -279 0
-280 275 279 0
282 -281 -126 0
282 281 126 0
-282 -281 126 0
-282 281 -126 0
283 282 0
-283 -282 0
284 -280 0
284 -283 0
-284 280 283 0
-286 151 0
-286 281 0
286 -151 -281 0
287 -285 -286 0
287 285 286 0
-287 -285 286 0
-287 285 -286 0
288 287 0
-288 -287 0
289 -284 0
289 -288 0
-289 284 288 0
-291 180 0
-291 281 0
291 -180 -281 0
292 -290 -291 0
292 290 291 0
-292 -290 291 0
-292 290 -291 0
293 292 0
-293 -292 0
294 -289 0
294 -293 0
-294 289 293 0
-296 194 0
-296 281 0
296 -194 -281 0
297 -295 -296 0
297 295 296 0
-297 -295 296 0
-297 295 -296 0
298 297 0
-298 -297 0
299 -294 0
299 -298 0
-299 294 298 0
-301 214 0
-301 281 0
301 -214 -281 0
302 -300 -301 0
302 300 301 0
-302 -300 301 0
-302 300 -301 0
303 302 0
-303 -302 0
304 -299 0
304 -303 0
-304 299 303 0
-306 151 0
-306 163 0
306 -151 -163 0
307 -305 -306 0
307 305 306 0
-307 -305 306 0
-307 305 -306 0
308 307 0
-308 -307 0
309 -304 0
309 -308 0
-309 304 308 0
311 -310 -236 0
311 310 236 0
-311 -310 236 0
-311 310 -236 0
312 311 0
-312 -311 0
313 -309 0
313 -312 0
-313 309 312 0
-316 2 0
-316 315 0
316 -2 -315 0
317 -314 -316 0
317 314 316 0
-317 -314 316 0
-317 314 -316 0
318 317 0
-318 -317 0
319 -313 0
319 -318 0
-319 313 318 0
321 -320 -241 0
321 320 241 0
-321 -320 241 0
-321 320 -241 0
322 321 0
-322 -321 0
323 -319 0
323 -322 0
-323 319 322 0
-326 2 0
-326 325 0
326 -2 -325 0
-327 326 0
-327 271 0
327 -326 -271 0
-329 2 0
-329 328 0
329 -2 -328 0
-330 329 0
-330 276 0
330 -329 -276 0
331 -327 0
331 -330 0
-331 327 330 0
332 -324 -331 0
332 324 331 0
-332 -324 331 0
-332 324 -331 0
333 332 0
-333 -332 0
334 -323 0
334 -333 0
-334 323 333 0
-337 2 0
-337 336 0
337 -2 -336 0
-338 337 0
-338 285 0
338 -337 -285 0
-340 2 0
-340 339 0
340 -2 -339 0
-341 340 0
-341 290 0
341 -340 -290 0
342 -338 0
342 -341 0
-342 338 341 0
343 -335 -342 0
343 335 342 0
-343 -335 342 0
-343 335 -342 0
344 343 0
-344 -343 0
345 -334 0
345 -344 0
-345 334 344 0
-348 347 0
-348 295 0
348 -347 -295 0
-350 2 0
-350 349 0
350 -2 -349 0
-351 350 0
-351 300 0
351 -350 -300 0
352 -348 0
352 -351 0
-352 348 351 0
353 -346 -352 0
353 346 352 0
-353 -346 352 0
-353 346 -352 0
354 353 0
-354 -353 0
355 -345 0
355 -354 0
-355 345 354 0
-358 2 0
-358 357 0
358 -2 -357 0
-359 358 0
-359 261 0
359 -358 -261 0
360 -356 -359 0
360 356 359 0
-360 -356 359 0
-360 356 -359 0
361 360 0
-361 -360 0
362 -355 0
362 -361 0
-362 355 361 0
-365 2 0
-365 364 0
365 -2 -364 0
-366 365 0
-366 266 0
366 -365 -266 0
367 -363 -366 0
367 363 366 0
-367 -363 366 0
-367 363 -366 0
368 367 0
-368 -367 0
369 -362 0
369 -368 0
-369 362 368 0
-372 172 0
-372 371 0
372 -172 -371 0
-373 372 0
-373 185 0
373 -372 -185 0
374 -370 0
374 -373 0
-374 370 373 0
376 -374 0
376 -375 0
-376 374 375 0
-378 172 0
-378 377 0
378 -172 -377 0
-379 378 0
-379 236 0
379 -378 -236 0
-381 172 0
-381 380 0
381 -172 -380 0
-382 381 0
-382 241 0
382 -381 -241 0
383 -379 0
383 -382 0
-383 379 382 0
-385 172 0
-385 384 0
385 -172 -384 0
-386 385 0
-386 246 0
386 -385 -246 0
-388 172 0
-388 387 0
388 -172 -387 0
-389 388 0
-389 251 0
389 -388 -251 0
390 -386 0
390 -389 0
-390 386 389 0
391 -383 0
391 -390 0
-391 383 390 0
392 -376 0
392 -391 0
-392 376 391 0
-394 172 0
-394 393 0
394 -172 -393 0
-395 394 0
-395 261 0
395 -394 -261 0
-397 172 0
-397 396 0
397 -172 -396 0
-398 397 0
-398 266 0
398 -397 -266 0
399 -395 0
399 -398 0
-399 395 398 0
-401 172 0
-401 400 0
401 -172 -400 0
-402 401 0
-402 271 0
402 -401 -271 0
-404 403 0
-404 276 0
404 -403 -276 0
405 -402 0
405 -404 0
-405 402 404 0
406 -399 0
406 -405 0
-406 399 405 0
-408 172 0
-408 407 0
408 -172 -407 0
-409 408 0
-409 285 0
409 -408 -285 0
-411 172 0
-411 410 0
411 -172 -410 0
-412 411 0
-412 290 0
412 -411 -290 0
413 -409 0
413 -412 0
-413 409 412 0
-415 172 0
-415 414 0
415 -172 -414 0
-416 415 0
-416 295 0
416 -415 -295 0
-418 172 0
-418 417 0
418 -172 -417 0
-419 418 0
-419 300 0
419 -418 -300 0
420 -416 0
420 -419 0
-420 416 419 0
421 -413 0
421 -420 0
-421 413 420 0
422 -406 0
422 -421 0
-422 406 421 0
423 -392 0
423 -422 0
-423 392 422 0
-425 2 0
-425 424 0
425 -2 -424 0
-426 425 0
-426 305 0
426 -425 -305 0
-428 2 0
-428 427 0
428 -2 -427 0
-429 428 0
-429 185 0
429 -428 -185 0
430 -426 0
430 -429 0
-430 426 429 0
-432 2 0
-432 431 0
432 -2 -431 0
-433 432 0
-433 199 0
433 -432 -199 0
-435 2 0
-435 434 0
435 -2 -434 0
-436 435 0
-436 218 0
436 -435 -218 0
437 -433 0
437 -436 0
-437 433 436 0
438 -430 0
438 -437 0
-438 430 437 0
-441 2 0
-441 440 0
441 -2 -440 0
-442 441 0
-442 246 0
442 -441 -246 0
-444 2 0
-444 443 0
444 -2 -443 0
-445 444 0
-445 251 0
445 -444 -251 0
446 -442 0
446 -445 0
-446 442 445 0
447 -439 0
447 -446 0
-447 439 446 0
448 -438 0
448 -447 0
-448 438 447 0
450 -448 0
450 -449 0
-450 448 449 0
451 -423 0
451 -450 0
-451 423 450 0
-453 1 0
-453 452 0
453 -1 -452 0
-454 453 0
-454 40 0
454 -453 -40 0
-455 1 0
-455 371 0
455 -1 -371 0
-456 455 0
-456 50 0
456 -455 -50 0
457 -454 0
457 -456 0
-457 454 456 0
-459 1 0
-459 458 0
459 -1 -458 0
-460 459 0
-460 60 0
460 -459 -60 0
-461 1 0
-461 209 0
461 -1 -209 0
-462 461 0
-462 70 0
462 -461 -70 0
463 -460 0
463 -462 0
-463 460 462 0
464 -457 0
464 -463 0
-464 457 463 0
-465 1 0
-465 377 0
465 -1 -377 0
-466 465 0
-466 80 0
466 -465 -80 0
-467 1 0
-467 380 0
467 -1 -380 0
-468 467 0
-468 85 0
468 -467 -85 0
469 -466 0
469 -468 0
-469 466 468 0
-470 1 0
-470 384 0
470 -1 -384 0
-471 470 0
-471 90 0
471 -470 -90 0
-472 1 0
-472 387 0
472 -1 -387 0
-473 472 0
-473 95 0
473 -472 -95 0
474 -471 0
474 -473 0
-474 471 473 0
475 -469 0
475 -474 0
-475 469 474 0
476 -464 0
476 -475 0
-476 464 475 0
-477 1 0
-477 393 0
477 -1 -393 0
-478 477 0
-478 105 0
478 -477 -105 0
-479 1 0
-479 396 0
479 -1 -396 0
-480 479 0
-480 110 0
480 -479 -110 0
481 -478 0
481 -480 0
-481 478 480 0
-482 1 0
-482 400 0
482 -1 -400 0
-483 482 0
-483 115 0
483 -482 -115 0
-485 1 0
-485 484 0
485 -1 -484 0
-486 485 0
-486 120 0
486 -485 -120 0
487 -483 0
487 -486 0
-487 483 486 0
488 -481 0
488 -487 0
-488 481 487 0
-489 1 0
-489 407 0
489 -1 -407 0
-490 489 0
-490 130 0
490 -489 -130 0
-491 1 0
-491 410 0
491 -1 -410 0
-492 491 0
-492 135 0
492 -491 -135 0
493 -490 0
493 -492 0
-493 490 492 0
-494 1 0
-494 414 0
494 -1 -414 0
-495 494 0
-495 140 0
495 -494 -140 0
-496 1 0
-496 417 0
496 -1 -417 0
-497 496 0
-497 145 0
497 -496 -145 0
498 -495 0
498 -497 0
-498 495 497 0
499 -493 0
499 -498 0
-499 493 498 0
500 -488 0
500 -499 0
-500 488 499 0
501 -476 0
501 -500 0
-501 476 500 0
-502 425 0
-502 40 0
502 -425 -40 0
-503 428 0
-503 50 0
503 -428 -50 0
504 -502 0
504 -503 0
-504 502 503 0
-505 432 0
-505 60 0
505 -432 -60 0
-506 435 0
-506 70 0
506 -435 -70 0
507 -505 0
507 -506 0
-507 505 506 0
508 -504 0
508 -507 0
-508 504 507 0
-510 2 0
-510 509 0
510 -2 -509 0
-511 510 0
-511 80 0
511 -510 -80 0
-512 316 0
-512 85 0
512 -316 -85 0
513 -511 0
513 -512 0
-513 511 512 0
-514 441 0
-514 90 0
514 -441 -90 0
-515 444 0
-515 95 0
515 -444 -95 0
516 -514 0
516 -515 0
-516 514 515 0
517 -513 0
517 -516 0
-517 513 516 0
518 -508 0
518 -517 0
-518 508 517 0
-519 358 0
-519 105 0
519 -358 -105 0
-520 365 0
-520 110 0
520 -365 -110 0
521 -519 0
521 -520 0
-521 519 520 0
-522 326 0
-522 115 0
522 -326 -115 0
-523 329 0
-523 120 0
523 -329 -120 0
524 -522 0
524 -523 0
-524 522 523 0
525 -521 0
525 -524 0
-525 521 524 0
-526 337 0
-526 130 0
526 -337 -130 0
-527 340 0
-527 135 0
527 -340 -135 0
528 -526 0
528 -527 0
-528 526 527 0
-530 2 0
-530 529 0
530 -2 -529 0
-531 530 0
-531 140 0
531 -530 -140 0
-532 350 0
-532 145 0
532 -350 -145 0
533 -531 0
533 -532 0
-533 531 532 0
534 -528 0
534 -533 0
-534 528 533 0
535 -525 0
535 -534 0
-535 525 534 0
536 -518 0
536 -535 0
-536 518 535 0
537 -501 0
537 -536 0
-537 501 536 0
538 -451 -537 0
538 451 537 0
-538 -451 537 0
-538 451 -537 0
539 -369 0
539 -538 0
-539 369 538 0
539 0
